1
74
21
7
76
12
32
58
63
88
35
40
99
45
54
25
97
80
57
10
60
50
49
56
15
20
23
64
95
36
59
98
51
69
47
83
73
16
61
71
89
81
79
26
46
3
14
52
44
72
68
38
33
48
90
42
5
8
65
31
66
30
93
91
55
6
34
37
77
85
96
70
4
2
11
82
92
27
67
41
75
87
9
13
39
43
86
19
94
18
24
29
100
78
53
22
17
84
62
28
1
